c Nemesis formula in 6CNF in accordance with DIMACS CNF format:
c    Filename: MCNC/c432/c432.tdl
c    Formula number 33
c    1292 variables (range: 2 - 1293)
c    2784 clauses
c
c p cnf 1293 2784
p cnf 865 2784
100	0
-835	0
864	0
100	0
-101	0
99	0
396	-397	0
-396	397	0
99	101	0
-99	-101	0
-106	-409	0
-270	-409	0
-261	-409	0
-281	-409	0
396	99	0
-396	-99	0
835	-397	0
-835	397	0
835	-101	0
-835	101	0
397	-101	0
-397	101	0
-836	38	0
-39	-838	0
37	-838	0
39	-839	0
-37	-839	0
-839	837	0
-838	837	0
554	37	0
-554	-37	0
-555	38	0
556	39	0
-556	-39	0
176	-554	0
-176	554	0
176	-557	0
-176	557	0
176	-570	0
-176	570	0
177	-555	0
177	-558	0
177	-571	0
178	-556	0
-178	556	0
178	-559	0
-178	559	0
178	-572	0
-178	572	0
214	176	0
-214	-176	0
-215	177	0
216	178	0
-216	-178	0
78	-199	0
-78	199	0
78	-202	0
-78	202	0
78	-214	0
-78	214	0
78	-226	0
-78	226	0
78	-233	0
-78	233	0
78	-263	0
-78	263	0
78	-267	0
-78	267	0
78	-272	0
-78	272	0
78	-283	0
-78	283	0
78	-383	0
-78	383	0
78	-438	0
-78	438	0
78	-466	0
-78	466	0
78	-513	0
-78	513	0
78	-525	0
-78	525	0
78	-613	0
-78	613	0
78	-639	0
-78	639	0
78	-661	0
-78	661	0
78	-688	0
-78	688	0
78	-694	0
-78	694	0
78	-719	0
-78	719	0
78	-759	0
-78	759	0
79	-200	0
79	-203	0
79	-215	0
79	-227	0
79	-234	0
79	-264	0
79	-268	0
79	-273	0
79	-284	0
79	-384	0
79	-439	0
79	-467	0
79	-514	0
79	-526	0
79	-614	0
79	-640	0
79	-662	0
79	-689	0
79	-695	0
79	-720	0
79	-760	0
80	-201	0
-80	201	0
80	-204	0
-80	204	0
80	-216	0
-80	216	0
80	-228	0
-80	228	0
80	-235	0
-80	235	0
80	-265	0
-80	265	0
80	-269	0
-80	269	0
80	-274	0
-80	274	0
80	-285	0
-80	285	0
80	-385	0
-80	385	0
80	-440	0
-80	440	0
80	-468	0
-80	468	0
80	-515	0
-80	515	0
80	-527	0
-80	527	0
80	-615	0
-80	615	0
80	-641	0
-80	641	0
80	-663	0
-80	663	0
80	-690	0
-80	690	0
80	-696	0
-80	696	0
80	-721	0
-80	721	0
80	-761	0
-80	761	0
99	78	0
552	78	0
390	78	0
396	78	0
101	80	0
552	80	0
390	80	0
396	80	0
409	396	0
-409	-396	0
232	-408	0
-232	408	0
232	-409	0
-232	409	0
-421	-232	0
-414	-232	0
-418	-232	0
401	-415	0
-401	415	0
401	-418	0
-401	418	0
401	-427	0
-401	427	0
401	-432	0
-401	432	0
34	401	0
-34	-401	0
12	-411	0
-12	411	0
12	-414	0
-12	414	0
410	-421	0
-410	421	0
410	-422	0
-410	422	0
-564	-825	0
420	-825	0
564	-826	0
-420	-826	0
-826	410	0
-825	410	0
57	-182	0
-57	182	0
57	-183	0
-57	183	0
57	-186	0
-57	186	0
57	-223	0
-57	223	0
57	-248	0
-57	248	0
57	-380	0
-57	380	0
57	-420	0
-57	420	0
57	-459	0
-57	459	0
57	-506	0
-57	506	0
57	-544	0
-57	544	0
57	-588	0
-57	588	0
57	-610	0
-57	610	0
57	-636	0
-57	636	0
57	-652	0
-57	652	0
57	-691	0
-57	691	0
57	-702	0
-57	702	0
57	-712	0
-57	712	0
57	-772	0
-57	772	0
57	-805	0
-57	805	0
583	57	0
560	57	0
58	57	0
575	57	0
700	575	0
-700	-575	0
576	-700	0
-576	700	0
576	-701	0
-576	701	0
-742	-576	0
-743	-576	0
578	-581	0
-578	581	0
578	-582	0
-578	582	0
578	-604	0
-578	604	0
578	-743	0
-578	743	0
26	578	0
-26	-578	0
7	-739	0
-7	739	0
7	-742	0
-7	742	0
-246	-58	0
-61	-58	0
56	-60	0
-56	60	0
56	-61	0
-56	61	0
-462	-56	0
-448	-56	0
433	-448	0
-433	448	0
433	-449	0
-433	449	0
451	433	0
-451	-433	0
32	-451	0
-32	451	0
32	-452	0
-32	452	0
32	-483	0
-32	483	0
5	-462	0
-5	462	0
5	-463	0
-5	463	0
59	-246	0
-59	246	0
59	-247	0
-59	247	0
-715	-59	0
-708	-59	0
703	-706	0
-703	706	0
703	-707	0
-703	707	0
703	-708	0
-703	708	0
703	-736	0
-703	736	0
9	703	0
-9	-703	0
21	-715	0
-21	715	0
21	-716	0
-21	716	0
-563	-560	0
-561	-560	0
-565	-560	0
419	-564	0
-419	564	0
419	-565	0
-419	565	0
-431	-419	0
-432	-419	0
25	-428	0
-25	428	0
25	-431	0
-25	431	0
664	561	0
653	561	0
665	561	0
803	665	0
-803	-665	0
784	-803	0
-784	803	0
784	-804	0
-784	804	0
-801	-784	0
-802	-784	0
785	-794	0
-785	794	0
785	-797	0
-785	797	0
785	-802	0
-785	802	0
785	-812	0
-785	812	0
19	785	0
-19	-785	0
17	-798	0
-17	798	0
17	-801	0
-17	801	0
655	653	0
-655	-653	0
651	-654	0
-651	654	0
651	-655	0
-651	655	0
-782	-651	0
-783	-651	0
498	-775	0
-498	775	0
498	-776	0
-498	776	0
498	-783	0
-498	783	0
768	498	0
-768	-498	0
35	-767	0
-35	767	0
35	-768	0
-35	768	0
30	-779	0
-30	779	0
30	-782	0
-30	782	0
667	664	0
-667	-664	0
185	-666	0
-185	666	0
185	-667	0
-185	667	0
-649	-185	0
-650	-185	0
188	-197	0
-188	197	0
188	-198	0
-188	198	0
188	-368	0
-188	368	0
188	-650	0
-188	650	0
28	188	0
-28	-188	0
4	-646	0
-4	646	0
4	-649	0
-4	649	0
500	-562	0
-500	562	0
500	-563	0
-500	563	0
-509	-500	0
-502	-500	0
495	-501	0
-495	501	0
495	-502	0
-495	502	0
532	495	0
-532	-495	0
6	-532	0
-6	532	0
6	-533	0
-6	533	0
6	-543	0
-6	543	0
10	-509	0
-10	509	0
10	-510	0
-10	510	0
586	583	0
-586	-583	0
584	-586	0
-584	586	0
584	-587	0
-584	587	0
-747	-584	0
-748	-584	0
589	-592	0
-589	592	0
589	-593	0
-589	593	0
589	-630	0
-589	630	0
589	-748	0
-589	748	0
27	589	0
-27	-589	0
11	-744	0
-11	744	0
11	-747	0
-11	747	0
-394	-390	0
-659	-390	0
-573	-390	0
392	-573	0
-392	573	0
392	-574	0
-392	574	0
392	-687	0
-392	687	0
-806	-392	0
-793	-392	0
-797	-392	0
18	-790	0
-18	790	0
18	-793	0
-18	793	0
789	-806	0
-789	806	0
789	-807	0
-789	807	0
-804	-813	0
805	-813	0
804	-814	0
-805	-814	0
-814	789	0
-813	789	0
391	-659	0
-391	659	0
391	-660	0
-391	660	0
-674	-391	0
-755	-391	0
-775	-391	0
22	-755	0
-22	755	0
22	-756	0
-22	756	0
497	-674	0
-497	674	0
497	-675	0
-497	675	0
-654	-819	0
652	-819	0
654	-820	0
-652	-820	0
-820	497	0
-819	497	0
187	-393	0
-187	393	0
187	-394	0
-187	394	0
-195	-187	0
-386	-187	0
-197	-187	0
23	-386	0
-23	386	0
23	-387	0
-23	387	0
184	-195	0
-184	195	0
184	-196	0
-184	196	0
-666	-831	0
186	-831	0
666	-832	0
-186	-832	0
-832	184	0
-831	184	0
395	-552	0
-395	552	0
395	-553	0
-395	553	0
523	395	0
-523	-395	0
496	-523	0
-496	523	0
496	-524	0
-496	524	0
-548	-496	0
-516	-496	0
-501	-496	0
33	-516	0
-33	516	0
33	-517	0
-33	517	0
499	-548	0
-499	548	0
499	-549	0
-499	549	0
-562	-823	0
544	-823	0
562	-824	0
-544	-824	0
-824	499	0
-823	499	0
-106	-99	0
-270	-99	0
-261	-99	0
-281	-99	0
104	-281	0
-104	281	0
104	-282	0
-104	282	0
104	-437	0
-104	437	0
-447	-104	0
-469	-104	0
-449	-104	0
29	-469	0
-29	469	0
29	-470	0
-29	470	0
55	-444	0
-55	444	0
55	-447	0
-55	447	0
-60	-833	0
182	-833	0
60	-834	0
-182	-834	0
-834	55	0
-833	55	0
103	-261	0
-103	261	0
103	-262	0
-103	262	0
103	-266	0
-103	266	0
-580	-103	0
-616	-103	0
-582	-103	0
31	-616	0
-31	616	0
31	-617	0
-31	617	0
577	-579	0
-577	579	0
577	-580	0
-577	580	0
-701	-815	0
702	-815	0
701	-816	0
-702	-816	0
-816	577	0
-815	577	0
102	-270	0
-102	270	0
102	-271	0
-102	271	0
-704	-102	0
-722	-102	0
-706	-102	0
20	-722	0
-20	722	0
20	-723	0
-20	723	0
245	-704	0
-245	704	0
245	-705	0
-245	705	0
-247	-827	0
248	-827	0
247	-828	0
-248	-828	0
-828	245	0
-827	245	0
77	-105	0
-77	105	0
77	-106	0
-77	106	0
-590	-77	0
-642	-77	0
-592	-77	0
15	-642	0
-15	642	0
15	-643	0
-15	643	0
585	-590	0
-585	590	0
585	-591	0
-585	591	0
-587	-821	0
588	-821	0
587	-822	0
-588	-822	0
-822	585	0
-821	585	0
-42	-845	0
40	-845	0
42	-846	0
-40	-846	0
-846	844	0
-845	844	0
473	40	0
-473	-40	0
-474	41	0
475	42	0
-475	-42	0
211	-473	0
-211	473	0
211	-476	0
-211	476	0
211	-529	0
-211	529	0
212	-474	0
212	-477	0
212	-530	0
213	-475	0
-213	475	0
213	-478	0
-213	478	0
213	-531	0
-213	531	0
492	211	0
-492	-211	0
-493	212	0
494	213	0
-494	-213	0
93	-402	0
-93	402	0
93	-405	0
-93	405	0
93	-492	0
-93	492	0
93	-597	0
-93	597	0
93	-623	0
-93	623	0
93	-729	0
-93	729	0
93	-752	0
-93	752	0
93	-786	0
-93	786	0
94	-403	0
94	-406	0
94	-493	0
94	-598	0
94	-624	0
94	-730	0
94	-753	0
94	-787	0
95	-404	0
-95	404	0
95	-407	0
-95	407	0
95	-494	0
-95	494	0
95	-599	0
-95	599	0
95	-625	0
-95	625	0
95	-731	0
-95	731	0
95	-754	0
-95	754	0
95	-788	0
-95	788	0
68	93	0
96	93	0
81	93	0
-69	94	0
-97	94	0
-82	94	0
70	95	0
98	95	0
83	95	0
-90	-81	0
-85	82	0
-91	82	0
-85	87	0
-92	-83	0
-444	-90	0
-441	-90	0
-435	91	0
-276	91	0
-442	-444	0
-445	-441	0
-276	-441	0
-435	-441	0
-276	-444	0
-435	-444	0
-444	-92	0
-441	-92	0
479	441	0
452	441	0
450	-479	0
-450	479	0
450	-480	0
-450	480	0
14	450	0
-14	-450	0
278	275	0
-278	-275	0
-279	276	0
280	277	0
-280	-277	0
-282	-278	0
-283	-278	0
-284	279	0
-284	-282	0
-282	-280	0
-285	-280	0
437	434	0
438	434	0
-439	435	0
-439	437	0
437	436	0
440	436	0
-705	-87	0
-732	-87	0
-707	-87	0
8	-732	0
-8	732	0
8	-733	0
-8	733	0
-273	85	0
-205	-96	0
-189	-96	0
-208	-96	0
-206	97	0
-190	97	0
-209	97	0
-207	-98	0
-191	-98	0
-210	-98	0
671	208	0
-657	209	0
-672	209	0
-669	-675	0
-676	-668	0
-657	-668	0
-657	-675	0
673	210	0
697	671	0
-567	672	0
-685	672	0
-685	697	0
-567	697	0
697	673	0
-807	-697	0
-811	-697	0
-812	-697	0
3	-808	0
-3	808	0
3	-811	0
-3	811	0
-687	-684	0
-688	-684	0
-689	685	0
-689	-687	0
-687	-686	0
-690	-686	0
-569	-566	0
-570	-566	0
-571	567	0
-571	-569	0
-569	-568	0
-572	-568	0
574	569	0
-574	-569	0
762	668	0
767	668	0
766	762	0
-766	-762	0
1	-763	0
-1	763	0
1	-766	0
-1	766	0
-660	-817	0
661	-817	0
660	-818	0
-661	-818	0
-818	656	0
-817	656	0
-662	657	0
-660	-848	0
663	-848	0
660	-849	0
-663	-849	0
-849	658	0
-848	658	0
-192	-189	0
-196	-189	0
-364	-189	0
-198	-189	0
-193	190	0
-193	-198	0
-193	-364	0
-193	-196	0
-194	-191	0
-196	-191	0
-364	-191	0
-198	-191	0
16	-364	0
-16	364	0
16	-365	0
-16	365	0
-393	-829	0
202	-829	0
393	-830	0
-202	-830	0
-830	192	0
-829	192	0
-203	193	0
-393	-850	0
204	-850	0
393	-851	0
-204	-851	0
-851	194	0
-850	194	0
236	205	0
-236	-205	0
-237	206	0
238	207	0
-238	-207	0
-242	-236	0
-230	237	0
-243	237	0
-230	239	0
-244	-238	0
-549	-242	0
-536	-242	0
-521	243	0
-546	243	0
-537	-549	0
-550	-536	0
-546	-536	0
-521	-536	0
-546	-549	0
-521	-549	0
-549	-244	0
-536	-244	0
542	536	0
543	536	0
528	-539	0
-528	539	0
528	-542	0
-528	542	0
13	528	0
-13	-528	0
553	545	0
557	545	0
-558	546	0
-558	553	0
553	547	0
559	547	0
524	520	0
525	520	0
-526	521	0
-526	524	0
524	522	0
527	522	0
-422	-239	0
-426	-239	0
-427	-239	0
36	-423	0
-36	423	0
36	-426	0
-36	426	0
-234	230	0
-62	-68	0
-72	69	0
-63	69	0
-72	74	0
-64	-70	0
65	62	0
-65	-62	0
-66	63	0
67	64	0
-67	-64	0
255	65	0
-250	66	0
-253	66	0
-253	255	0
-250	255	0
255	67	0
-579	-255	0
-600	-255	0
-581	-255	0
24	-600	0
-24	600	0
24	-601	0
-24	601	0
-266	-252	0
-267	-252	0
-268	253	0
-268	-266	0
-266	-254	0
-269	-254	0
258	249	0
-258	-249	0
-259	250	0
260	251	0
-260	-251	0
262	258	0
263	258	0
-264	259	0
-264	262	0
262	260	0
265	260	0
-591	-74	0
-626	-74	0
-593	-74	0
2	-626	0
-2	626	0
2	-627	0
-2	627	0
-200	72	0
-45	-853	0
43	-853	0
45	-854	0
-43	-854	0
-854	852	0
-853	852	0
298	43	0
146	43	0
128	43	0
134	43	0
-299	44	0
-147	44	0
-129	44	0
-135	44	0
300	45	0
148	45	0
130	45	0
136	45	0
107	-131	0
-107	131	0
107	-134	0
-107	134	0
107	-152	0
-107	152	0
108	-132	0
108	-135	0
108	-153	0
109	-133	0
-109	133	0
109	-136	0
-109	136	0
109	-154	0
-109	154	0
173	107	0
-173	-107	0
-174	108	0
175	109	0
-175	-109	0
158	-170	0
-158	170	0
158	-173	0
-158	173	0
159	-171	0
159	-174	0
160	-172	0
-160	172	0
160	-175	0
-160	175	0
-678	-158	0
-695	159	0
-679	159	0
-695	790	0
-799	691	0
-692	798	0
-680	-160	0
681	678	0
-681	-678	0
-682	679	0
683	680	0
-683	-680	0
-794	-681	0
-787	682	0
-787	808	0
-809	-794	0
-787	-794	0
-794	-683	0
116	-125	0
-116	125	0
116	-128	0
-116	128	0
116	-295	0
-116	295	0
116	-343	0
-116	343	0
117	-126	0
117	-129	0
117	-296	0
117	-344	0
118	-127	0
-118	127	0
118	-130	0
-118	130	0
118	-297	0
-118	297	0
118	-345	0
-118	345	0
340	116	0
-340	-116	0
-341	117	0
342	118	0
-342	-118	0
167	-319	0
-167	319	0
167	-322	0
-167	322	0
167	-340	0
-167	340	0
168	-320	0
168	-323	0
168	-341	0
169	-321	0
-169	321	0
169	-324	0
-169	324	0
169	-342	0
-169	342	0
-630	-167	0
-620	-167	0
-624	168	0
-621	168	0
-621	-630	0
-624	627	0
-628	-630	0
-624	-630	0
-630	-169	0
-622	-169	0
633	620	0
-633	-620	0
-634	621	0
635	622	0
-635	-622	0
-640	634	0
-640	643	0
-745	636	0
-637	744	0
122	-146	0
-122	146	0
122	-149	0
-122	149	0
123	-147	0
123	-150	0
124	-148	0
-124	148	0
124	-151	0
-124	151	0
316	122	0
-316	-122	0
-317	123	0
318	124	0
-318	-124	0
-322	-316	0
-325	-316	0
-323	317	0
-326	317	0
-324	-318	0
-327	-318	0
292	-310	0
-292	310	0
292	-313	0
-292	313	0
292	-325	0
-292	325	0
292	-346	0
-292	346	0
292	-486	0
-292	486	0
293	-311	0
293	-314	0
293	-326	0
293	-347	0
293	-487	0
294	-312	0
-294	312	0
294	-315	0
-294	315	0
294	-327	0
-294	327	0
294	-348	0
-294	348	0
294	-488	0
-294	488	0
607	292	0
594	292	0
-608	293	0
-595	293	0
609	294	0
596	294	0
-604	-594	0
-598	595	0
-598	601	0
-602	-604	0
-598	-604	0
-604	-596	0
-614	608	0
-614	617	0
-740	610	0
-611	739	0
119	-298	0
-119	298	0
119	-301	0
-119	301	0
119	-307	0
-119	307	0
119	-489	0
-119	489	0
120	-299	0
120	-302	0
120	-308	0
120	-490	0
121	-300	0
-121	300	0
121	-303	0
-121	303	0
121	-309	0
-121	309	0
121	-491	0
-121	491	0
453	119	0
-453	-119	0
-454	120	0
455	121	0
-455	-121	0
-709	-453	0
-720	454	0
-710	454	0
-720	723	0
-717	712	0
-713	716	0
-711	-455	0
726	709	0
-726	-709	0
-727	710	0
728	711	0
-728	-711	0
-736	-726	0
-730	727	0
-730	733	0
-734	-736	0
-730	-736	0
-736	-728	0
-51	-856	0
49	-856	0
51	-857	0
-49	-857	0
-857	855	0
-856	855	0
143	49	0
149	49	0
137	49	0
152	49	0
-144	50	0
-150	50	0
-138	50	0
-153	50	0
145	51	0
151	51	0
139	51	0
154	51	0
343	137	0
374	137	0
346	137	0
352	137	0
-344	138	0
-375	138	0
-347	138	0
-353	138	0
345	139	0
376	139	0
348	139	0
354	139	0
331	-349	0
-331	349	0
331	-352	0
-331	352	0
332	-350	0
332	-353	0
333	-351	0
-333	351	0
333	-354	0
-333	354	0
358	331	0
-358	-331	0
-359	332	0
360	333	0
-360	-333	0
304	-355	0
-304	355	0
304	-358	0
-304	358	0
305	-356	0
305	-359	0
306	-357	0
-306	357	0
306	-360	0
-306	360	0
-503	-304	0
-514	305	0
-504	305	0
-514	517	0
-511	506	0
-507	510	0
-505	-306	0
533	503	0
-530	504	0
-530	-539	0
-540	533	0
-530	533	0
533	505	0
217	-374	0
-217	374	0
217	-377	0
-217	377	0
218	-375	0
218	-378	0
219	-376	0
-219	376	0
219	-379	0
-219	379	0
-220	-217	0
-227	218	0
-221	218	0
-227	411	0
-429	223	0
-224	428	0
-222	-219	0
398	220	0
-398	-220	0
-399	221	0
400	222	0
-400	-222	0
-415	-398	0
-406	399	0
-406	423	0
-424	-415	0
-406	-415	0
-415	-400	0
110	-140	0
-110	140	0
110	-143	0
-110	143	0
111	-141	0
111	-144	0
112	-142	0
-112	142	0
112	-145	0
-112	145	0
295	110	0
301	110	0
310	110	0
286	110	0
-296	111	0
-302	111	0
-311	111	0
-287	111	0
297	112	0
303	112	0
312	112	0
288	112	0
334	286	0
-334	-286	0
-335	287	0
336	288	0
-336	-288	0
289	-334	0
-289	334	0
289	-337	0
-289	337	0
290	-335	0
290	-338	0
291	-336	0
-291	336	0
291	-339	0
-291	339	0
483	289	0
456	289	0
-477	290	0
-457	290	0
-457	483	0
-477	-480	0
-481	483	0
-477	483	0
483	291	0
458	291	0
-467	457	0
-467	470	0
-464	459	0
-460	463	0
-48	-859	0
46	-859	0
48	-860	0
-46	-860	0
-860	858	0
-859	858	0
131	46	0
140	46	0
113	46	0
125	46	0
-132	47	0
-141	47	0
-114	47	0
-126	47	0
133	48	0
142	48	0
115	48	0
127	48	0
307	113	0
355	113	0
313	113	0
-308	114	0
-356	114	0
-314	114	0
309	115	0
357	115	0
315	115	0
-54	-862	0
52	-862	0
54	-863	0
-52	-863	0
-863	861	0
-862	861	0
-179	-52	0
-155	-52	0
-180	53	0
-156	53	0
-181	-54	0
-157	-54	0
-170	-155	0
-161	-155	0
-164	-155	0
-319	-155	0
-171	156	0
-162	156	0
-165	156	0
-320	156	0
-172	-157	0
-163	-157	0
-166	-157	0
-321	-157	0
486	164	0
489	164	0
-487	165	0
-490	165	0
488	166	0
491	166	0
337	161	0
328	161	0
349	161	0
-338	162	0
-329	162	0
-350	162	0
339	163	0
330	163	0
351	163	0
-377	-328	0
-372	329	0
-362	329	0
-378	329	0
-379	-330	0
-368	-361	0
-403	362	0
-403	365	0
-366	-368	0
-403	-368	0
-368	-363	0
-384	372	0
-384	387	0
-647	380	0
-381	646	0
-769	-179	0
-776	-179	0
-770	180	0
-770	-776	0
-773	779	0
-780	772	0
-773	-776	0
-780	-776	0
-771	-181	0
-776	-181	0
749	769	0
-749	-769	0
-750	770	0
751	771	0
-751	-771	0
-753	750	0
-760	750	0
-760	756	0
-753	763	0
-861	864	0
-858	864	0
-855	864	0
-852	864	0
-844	864	0
-837	864	0
838	39	-37	0
839	-39	37	0
-837	839	838	0
-38	37	39	0
-38	-37	-39	0
-571	570	572	0
-571	-570	-572	0
-558	557	559	0
-558	-557	-559	0
-555	554	556	0
-555	-554	-556	0
-177	176	178	0
-177	-176	-178	0
-760	759	761	0
-760	-759	-761	0
-720	719	721	0
-720	-719	-721	0
-695	694	696	0
-695	-694	-696	0
-689	688	690	0
-689	-688	-690	0
-662	661	663	0
-662	-661	-663	0
-640	639	641	0
-640	-639	-641	0
-614	613	615	0
-614	-613	-615	0
-526	525	527	0
-526	-525	-527	0
-514	513	515	0
-514	-513	-515	0
-467	466	468	0
-467	-466	-468	0
-439	438	440	0
-439	-438	-440	0
-384	383	385	0
-384	-383	-385	0
-284	283	285	0
-284	-283	-285	0
-273	272	274	0
-273	-272	-274	0
-268	267	269	0
-268	-267	-269	0
-264	263	265	0
-264	-263	-265	0
-234	233	235	0
-234	-233	-235	0
-227	226	228	0
-227	-226	-228	0
-215	214	216	0
-215	-214	-216	0
-203	202	204	0
-203	-202	-204	0
-200	199	201	0
-200	-199	-201	0
-79	78	80	0
-79	-78	-80	0
825	564	-420	0
826	-564	420	0
-410	826	825	0
576	742	743	0
58	246	61	0
56	462	448	0
59	715	708	0
419	431	432	0
784	801	802	0
651	782	783	0
185	649	650	0
500	509	502	0
584	747	748	0
813	804	-805	0
814	-804	805	0
-789	814	813	0
819	654	-652	0
820	-654	652	0
-497	820	819	0
831	666	-186	0
832	-666	186	0
-184	832	831	0
823	562	-544	0
824	-562	544	0
-499	824	823	0
833	60	-182	0
834	-60	182	0
-55	834	833	0
815	701	-702	0
816	-701	702	0
-577	816	815	0
827	247	-248	0
828	-247	248	0
-245	828	827	0
821	587	-588	0
822	-587	588	0
-585	822	821	0
845	42	-40	0
846	-42	40	0
-844	846	845	0
-41	40	42	0
-41	-40	-42	0
-530	529	531	0
-530	-529	-531	0
-477	476	478	0
-477	-476	-478	0
-474	473	475	0
-474	-473	-475	0
-212	211	213	0
-212	-211	-213	0
-787	786	788	0
-787	-786	-788	0
-753	752	754	0
-753	-752	-754	0
-730	729	731	0
-730	-729	-731	0
-624	623	625	0
-624	-623	-625	0
-598	597	599	0
-598	-597	-599	0
-493	492	494	0
-493	-492	-494	0
-406	405	407	0
-406	-405	-407	0
-403	402	404	0
-403	-402	-404	0
-82	-83	98	0
-82	-81	96	0
-82	96	98	0
-82	-83	70	0
-82	-81	68	0
-82	68	70	0
-97	-98	83	0
-97	-96	81	0
-97	81	83	0
-97	-98	70	0
-97	-96	68	0
-97	68	70	0
-69	-70	83	0
-69	-68	81	0
-69	81	83	0
-69	-70	98	0
-69	-68	96	0
-69	96	98	0
-94	93	95	0
-94	-93	-95	0
-87	-84	-81	0
90	84	81	0
90	87	81	0
-88	-89	86	0
-88	-87	84	0
-88	84	86	0
-88	-89	-90	0
-88	-87	-92	0
-88	-90	-92	0
-85	-86	-90	0
-85	-84	-92	0
-85	-90	-92	0
-82	81	83	0
-82	-81	-83	0
-87	-86	-83	0
92	86	83	0
92	87	83	0
-275	-434	-90	0
-276	-277	436	0
-276	-275	434	0
-276	434	436	0
-435	-436	277	0
-435	-434	275	0
-435	275	277	0
-91	90	92	0
-91	-90	-92	0
-277	-436	-92	0
-441	-479	-452	0
-276	275	277	0
-276	-275	-277	0
278	282	283	0
-279	278	280	0
-279	-278	-280	0
280	282	285	0
-434	-437	-438	0
-435	434	436	0
-435	-434	-436	0
-436	-437	-440	0
272	271	84	0
-272	-271	84	0
-272	271	-84	0
272	-271	-84	0
-85	84	86	0
-85	-84	-86	0
274	271	86	0
-274	-271	86	0
-274	271	-86	0
274	-271	-86	0
-209	-210	-189	0
-209	-208	-191	0
-209	-189	-191	0
-209	-210	-205	0
-209	-208	-207	0
-209	-205	-207	0
-190	-191	-208	0
-190	-189	-210	0
-190	-208	-210	0
-190	-191	-205	0
-190	-189	-207	0
-190	-205	-207	0
-206	-207	-208	0
-206	-205	-210	0
-206	-208	-210	0
-206	-207	-189	0
-206	-205	-191	0
-206	-189	-191	0
-97	96	98	0
-97	-96	-98	0
-671	-656	-208	0
-671	-675	-208	0
-671	-668	-208	0
-669	-670	-656	0
-669	-668	-658	0
-669	-656	-658	0
-676	-677	-656	0
-676	-675	-658	0
-676	-656	-658	0
-669	-670	673	0
-669	-668	671	0
-669	671	673	0
-676	-677	673	0
-676	-675	671	0
-676	671	673	0
-657	-658	673	0
-657	-656	671	0
-657	671	673	0
-209	208	210	0
-209	-208	-210	0
-673	-658	-210	0
-673	-675	-210	0
-673	-668	-210	0
684	566	671	0
-697	-566	-671	0
-697	-684	-671	0
-685	-686	-566	0
-685	-684	-568	0
-685	-566	-568	0
-567	-568	-684	0
-567	-566	-686	0
-567	-684	-686	0
-672	671	673	0
-672	-671	-673	0
686	568	673	0
-697	-568	-673	0
-697	-686	-673	0
684	687	688	0
-685	684	686	0
-685	-684	-686	0
686	687	690	0
566	569	570	0
-567	566	568	0
-567	-566	-568	0
568	569	572	0
-668	-762	-767	0
817	660	-661	0
818	-660	661	0
-656	818	817	0
-657	656	658	0
-657	-656	-658	0
848	660	-663	0
849	-660	663	0
-658	849	848	0
-190	189	191	0
-190	-189	-191	0
829	393	-202	0
830	-393	202	0
-192	830	829	0
-193	192	194	0
-193	-192	-194	0
850	393	-204	0
851	-393	204	0
-194	851	850	0
-206	205	207	0
-206	-205	-207	0
-239	-229	-236	0
242	229	236	0
242	239	236	0
-240	-241	231	0
-240	-239	229	0
-240	229	231	0
-240	-241	-242	0
-240	-239	-244	0
-240	-242	-244	0
-230	-231	-242	0
-230	-229	-244	0
-230	-242	-244	0
-237	236	238	0
-237	-236	-238	0
-239	-231	-238	0
244	231	238	0
244	239	238	0
-545	-520	-242	0
-546	-547	522	0
-546	-545	520	0
-546	520	522	0
-521	-522	547	0
-521	-520	545	0
-521	545	547	0
-243	242	244	0
-243	-242	-244	0
-547	-522	-244	0
-536	-542	-543	0
-545	-553	-557	0
-546	545	547	0
-546	-545	-547	0
-547	-553	-559	0
-520	-524	-525	0
-521	520	522	0
-521	-520	-522	0
-522	-524	-527	0
233	408	229	0
-233	-408	229	0
-233	408	-229	0
233	-408	-229	0
-230	229	231	0
-230	-229	-231	0
235	408	231	0
-235	-408	231	0
-235	408	-231	0
235	-408	-231	0
-74	-71	-68	0
62	71	68	0
62	74	68	0
-75	-76	73	0
-75	-74	71	0
-75	71	73	0
-75	-76	-62	0
-75	-74	-64	0
-75	-62	-64	0
-72	-73	-62	0
-72	-71	-64	0
-72	-62	-64	0
-69	68	70	0
-69	-68	-70	0
-74	-73	-70	0
64	73	70	0
64	74	70	0
-63	62	64	0
-63	-62	-64	0
252	249	65	0
-255	-249	-65	0
-255	-252	-65	0
-253	-254	-249	0
-253	-252	-251	0
-253	-249	-251	0
-250	-251	-252	0
-250	-249	-254	0
-250	-252	-254	0
-66	65	67	0
-66	-65	-67	0
254	251	67	0
-255	-251	-67	0
-255	-254	-67	0
252	266	267	0
-253	252	254	0
-253	-252	-254	0
254	266	269	0
-250	249	251	0
-250	-249	-251	0
-258	-262	-263	0
-259	258	260	0
-259	-258	-260	0
-260	-262	-265	0
199	105	71	0
-199	-105	71	0
-199	105	-71	0
199	-105	-71	0
-72	71	73	0
-72	-71	-73	0
201	105	73	0
-201	-105	73	0
-201	105	-73	0
201	-105	-73	0
853	45	-43	0
854	-45	43	0
-852	854	853	0
-135	-136	130	0
-135	-134	128	0
-135	128	130	0
-135	-136	148	0
-135	-134	146	0
-135	146	148	0
-135	-136	300	0
-135	-134	298	0
-135	298	300	0
-129	-130	136	0
-129	-128	134	0
-129	134	136	0
-129	-130	148	0
-129	-128	146	0
-129	146	148	0
-129	-130	300	0
-129	-128	298	0
-129	298	300	0
-147	-148	136	0
-147	-146	134	0
-147	134	136	0
-147	-148	130	0
-147	-146	128	0
-147	128	130	0
-147	-148	300	0
-147	-146	298	0
-147	298	300	0
-299	-300	136	0
-299	-298	134	0
-299	134	136	0
-299	-300	130	0
-299	-298	128	0
-299	128	130	0
-299	-300	148	0
-299	-298	146	0
-299	146	148	0
-44	43	45	0
-44	-43	-45	0
-153	152	154	0
-153	-152	-154	0
-135	134	136	0
-135	-134	-136	0
-132	131	133	0
-132	-131	-133	0
-108	107	109	0
-108	-107	-109	0
-159	171	174	0
-174	173	175	0
-174	-173	-175	0
-171	170	172	0
-171	-170	-172	0
-798	-691	-158	0
-790	-694	-158	0
-791	-792	696	0
-791	-790	694	0
-791	694	696	0
-791	-792	-678	0
-791	-790	-680	0
-791	-678	-680	0
-695	-696	-678	0
-695	-694	-680	0
-695	-678	-680	0
-799	-800	-678	0
-799	-798	-680	0
-799	-678	-680	0
-692	-693	-678	0
-692	-691	-680	0
-692	-678	-680	0
-679	-798	-691	0
-791	-798	-691	0
-695	-798	-691	0
-159	158	160	0
-159	-158	-160	0
-798	-691	-160	0
-790	-696	-160	0
-679	678	680	0
-679	-678	-680	0
-808	-786	-681	0
794	786	681	0
794	808	681	0
-809	-810	788	0
-809	-808	786	0
-809	786	788	0
-682	681	683	0
-682	-681	-683	0
-808	-788	-683	0
794	788	683	0
794	808	683	0
-344	343	345	0
-344	-343	-345	0
-296	295	297	0
-296	-295	-297	0
-129	128	130	0
-129	-128	-130	0
-126	125	127	0
-126	-125	-127	0
-117	116	118	0
-117	-116	-118	0
-341	340	342	0
-341	-340	-342	0
-323	322	324	0
-323	-322	-324	0
-320	319	321	0
-320	-319	-321	0
-627	-623	-167	0
-631	-632	-620	0
-631	-630	-622	0
-631	-620	-622	0
-628	-629	625	0
-628	-627	623	0
-628	623	625	0
-628	-629	-620	0
-628	-627	-622	0
-628	-620	-622	0
-624	-625	-620	0
-624	-623	-622	0
-624	-620	-622	0
-168	167	169	0
-168	-167	-169	0
-627	-625	-169	0
-621	620	622	0
-621	-620	-622	0
-744	-636	-633	0
-643	-639	-633	0
639	636	633	0
643	636	633	0
639	744	633	0
643	744	633	0
-644	-645	641	0
-644	-643	639	0
-644	639	641	0
-644	-744	-636	0
-640	-744	-636	0
-634	633	635	0
-634	-633	-635	0
-744	-636	-635	0
-643	-641	-635	0
641	636	635	0
643	636	635	0
641	744	635	0
643	744	635	0
-123	147	150	0
-150	149	151	0
-150	-149	-151	0
-147	146	148	0
-147	-146	-148	0
-123	122	124	0
-123	-122	-124	0
316	322	325	0
-326	-327	-322	0
-326	-325	-324	0
-326	-322	-324	0
-323	-324	-325	0
-323	-322	-327	0
-323	-325	-327	0
-317	316	318	0
-317	-316	-318	0
318	324	327	0
-487	486	488	0
-487	-486	-488	0
-347	346	348	0
-347	-346	-348	0
-326	325	327	0
-326	-325	-327	0
-314	313	315	0
-314	-313	-315	0
-311	310	312	0
-311	-310	-312	0
-292	-607	-594	0
-595	-596	609	0
-595	-594	607	0
-595	607	609	0
-608	-609	596	0
-608	-607	594	0
-608	594	596	0
-293	292	294	0
-293	-292	-294	0
-294	-609	-596	0
-601	-597	-594	0
604	597	594	0
604	601	594	0
-602	-603	599	0
-602	-601	597	0
-602	597	599	0
-595	594	596	0
-595	-594	-596	0
-601	-599	-596	0
604	599	596	0
604	601	596	0
-739	-610	-607	0
-617	-613	-607	0
613	610	607	0
617	610	607	0
613	739	607	0
617	739	607	0
-618	-619	615	0
-618	-617	613	0
-618	613	615	0
-618	-739	-610	0
-614	-739	-610	0
-608	607	609	0
-608	-607	-609	0
-739	-610	-609	0
-617	-615	-609	0
615	610	609	0
617	610	609	0
615	739	609	0
617	739	609	0
-490	489	491	0
-490	-489	-491	0
-308	307	309	0
-308	-307	-309	0
-302	301	303	0
-302	-301	-303	0
-299	298	300	0
-299	-298	-300	0
-120	119	121	0
-120	-119	-121	0
-716	-712	-453	0
-723	-719	-453	0
-724	-725	721	0
-724	-723	719	0
-724	719	721	0
-724	-725	-709	0
-724	-723	-711	0
-724	-709	-711	0
-720	-721	-709	0
-720	-719	-711	0
-720	-709	-711	0
-717	-718	-709	0
-717	-716	-711	0
-717	-709	-711	0
-713	-714	-709	0
-713	-712	-711	0
-713	-709	-711	0
-710	-716	-712	0
-724	-716	-712	0
-720	-716	-712	0
-454	453	455	0
-454	-453	-455	0
-716	-712	-455	0
-723	-721	-455	0
-710	709	711	0
-710	-709	-711	0
-733	-729	-726	0
736	729	726	0
736	733	726	0
-734	-735	731	0
-734	-733	729	0
-734	729	731	0
-727	726	728	0
-727	-726	-728	0
-733	-731	-728	0
736	731	728	0
736	733	728	0
856	51	-49	0
857	-51	49	0
-855	857	856	0
-153	-154	139	0
-153	-152	137	0
-153	137	139	0
-153	-154	151	0
-153	-152	149	0
-153	149	151	0
-153	-154	145	0
-153	-152	143	0
-153	143	145	0
-138	-139	154	0
-138	-137	152	0
-138	152	154	0
-138	-139	151	0
-138	-137	149	0
-138	149	151	0
-138	-139	145	0
-138	-137	143	0
-138	143	145	0
-150	-151	154	0
-150	-149	152	0
-150	152	154	0
-150	-151	139	0
-150	-149	137	0
-150	137	139	0
-150	-151	145	0
-150	-149	143	0
-150	143	145	0
-144	-145	154	0
-144	-143	152	0
-144	152	154	0
-144	-145	139	0
-144	-143	137	0
-144	137	139	0
-144	-145	151	0
-144	-143	149	0
-144	149	151	0
-50	49	51	0
-50	-49	-51	0
-353	-354	348	0
-353	-352	346	0
-353	346	348	0
-353	-354	376	0
-353	-352	374	0
-353	374	376	0
-353	-354	345	0
-353	-352	343	0
-353	343	345	0
-347	-348	354	0
-347	-346	352	0
-347	352	354	0
-347	-348	376	0
-347	-346	374	0
-347	374	376	0
-347	-348	345	0
-347	-346	343	0
-347	343	345	0
-375	-376	354	0
-375	-374	352	0
-375	352	354	0
-375	-376	348	0
-375	-374	346	0
-375	346	348	0
-375	-376	345	0
-375	-374	343	0
-375	343	345	0
-344	-345	354	0
-344	-343	352	0
-344	352	354	0
-344	-345	348	0
-344	-343	346	0
-344	346	348	0
-344	-345	376	0
-344	-343	374	0
-344	374	376	0
-138	137	139	0
-138	-137	-139	0
-332	350	353	0
-353	352	354	0
-353	-352	-354	0
-350	349	351	0
-350	-349	-351	0
-332	331	333	0
-332	-331	-333	0
-305	356	359	0
-359	358	360	0
-359	-358	-360	0
-356	355	357	0
-356	-355	-357	0
-510	-506	-304	0
-517	-513	-304	0
-518	-519	515	0
-518	-517	513	0
-518	513	515	0
-518	-519	-503	0
-518	-517	-505	0
-518	-503	-505	0
-514	-515	-503	0
-514	-513	-505	0
-514	-503	-505	0
-511	-512	-503	0
-511	-510	-505	0
-511	-503	-505	0
-507	-508	-503	0
-507	-506	-505	0
-507	-503	-505	0
-504	-510	-506	0
-518	-510	-506	0
-514	-510	-506	0
-305	304	306	0
-305	-304	-306	0
-510	-506	-306	0
-517	-515	-306	0
539	529	503	0
-533	-529	-503	0
-533	-539	-503	0
-540	-541	-529	0
-540	-539	-531	0
-540	-529	-531	0
-504	503	505	0
-504	-503	-505	0
539	531	505	0
-533	-531	-505	0
-533	-539	-505	0
-218	375	378	0
-378	377	379	0
-378	-377	-379	0
-375	374	376	0
-375	-374	-376	0
-428	-223	-217	0
-411	-226	-217	0
-412	-413	228	0
-412	-411	226	0
-412	226	228	0
-412	-413	-220	0
-412	-411	-222	0
-412	-220	-222	0
-227	-228	-220	0
-227	-226	-222	0
-227	-220	-222	0
-429	-430	-220	0
-429	-428	-222	0
-429	-220	-222	0
-224	-225	-220	0
-224	-223	-222	0
-224	-220	-222	0
-221	-428	-223	0
-412	-428	-223	0
-227	-428	-223	0
-218	217	219	0
-218	-217	-219	0
-428	-223	-219	0
-411	-228	-219	0
-221	220	222	0
-221	-220	-222	0
-423	-405	-398	0
415	405	398	0
415	423	398	0
-424	-425	407	0
-424	-423	405	0
-424	405	407	0
-399	398	400	0
-399	-398	-400	0
-423	-407	-400	0
415	407	400	0
415	423	400	0
-111	141	144	0
-144	143	145	0
-144	-143	-145	0
-141	140	142	0
-141	-140	-142	0
-287	-288	312	0
-287	-286	310	0
-287	310	312	0
-287	-288	303	0
-287	-286	301	0
-287	301	303	0
-287	-288	297	0
-287	-286	295	0
-287	295	297	0
-311	-312	288	0
-311	-310	286	0
-311	286	288	0
-311	-312	303	0
-311	-310	301	0
-311	301	303	0
-311	-312	297	0
-311	-310	295	0
-311	295	297	0
-302	-303	288	0
-302	-301	286	0
-302	286	288	0
-302	-303	312	0
-302	-301	310	0
-302	310	312	0
-302	-303	297	0
-302	-301	295	0
-302	295	297	0
-296	-297	288	0
-296	-295	286	0
-296	286	288	0
-296	-297	312	0
-296	-295	310	0
-296	310	312	0
-296	-297	303	0
-296	-295	301	0
-296	301	303	0
-111	110	112	0
-111	-110	-112	0
-287	286	288	0
-287	-286	-288	0
-290	335	338	0
-338	337	339	0
-338	-337	-339	0
-335	334	336	0
-335	-334	-336	0
480	476	289	0
-484	-485	458	0
-484	-483	456	0
-484	456	458	0
-481	-482	-476	0
-481	-480	-478	0
-481	-476	-478	0
-481	-482	458	0
-481	-480	456	0
-481	456	458	0
-477	-478	458	0
-477	-476	456	0
-477	456	458	0
-290	289	291	0
-290	-289	-291	0
480	478	291	0
-463	-459	-456	0
-470	-466	-456	0
466	459	456	0
470	459	456	0
466	463	456	0
470	463	456	0
-471	-472	468	0
-471	-470	466	0
-471	466	468	0
-471	-463	-459	0
-467	-463	-459	0
-457	456	458	0
-457	-456	-458	0
-463	-459	-458	0
-470	-468	-458	0
468	459	458	0
470	459	458	0
468	463	458	0
470	463	458	0
859	48	-46	0
860	-48	46	0
-858	860	859	0
-126	-127	115	0
-126	-125	113	0
-126	113	115	0
-126	-127	142	0
-126	-125	140	0
-126	140	142	0
-126	-127	133	0
-126	-125	131	0
-126	131	133	0
-114	-115	127	0
-114	-113	125	0
-114	125	127	0
-114	-115	142	0
-114	-113	140	0
-114	140	142	0
-114	-115	133	0
-114	-113	131	0
-114	131	133	0
-141	-142	127	0
-141	-140	125	0
-141	125	127	0
-141	-142	115	0
-141	-140	113	0
-141	113	115	0
-141	-142	133	0
-141	-140	131	0
-141	131	133	0
-132	-133	127	0
-132	-131	125	0
-132	125	127	0
-132	-133	115	0
-132	-131	113	0
-132	113	115	0
-132	-133	142	0
-132	-131	140	0
-132	140	142	0
-47	46	48	0
-47	-46	-48	0
-314	-315	357	0
-314	-313	355	0
-314	355	357	0
-314	-315	309	0
-314	-313	307	0
-314	307	309	0
-356	-357	315	0
-356	-355	313	0
-356	313	315	0
-356	-357	309	0
-356	-355	307	0
-356	307	309	0
-308	-309	315	0
-308	-307	313	0
-308	313	315	0
-308	-309	357	0
-308	-307	355	0
-308	355	357	0
-114	113	115	0
-114	-113	-115	0
862	54	-52	0
863	-54	52	0
-861	863	862	0
52	179	155	0
-156	-157	-179	0
-156	-155	-181	0
-156	-179	-181	0
-180	-181	-155	0
-180	-179	-157	0
-180	-155	-157	0
-53	52	54	0
-53	-52	-54	0
54	181	157	0
-320	-321	-164	0
-320	-319	-166	0
-320	-164	-166	0
-320	-321	-161	0
-320	-319	-163	0
-320	-161	-163	0
-320	-321	-170	0
-320	-319	-172	0
-320	-170	-172	0
-165	-166	-319	0
-165	-164	-321	0
-165	-319	-321	0
-165	-166	-161	0
-165	-164	-163	0
-165	-161	-163	0
-165	-166	-170	0
-165	-164	-172	0
-165	-170	-172	0
-162	-163	-319	0
-162	-161	-321	0
-162	-319	-321	0
-162	-163	-164	0
-162	-161	-166	0
-162	-164	-166	0
-162	-163	-170	0
-162	-161	-172	0
-162	-170	-172	0
-171	-172	-319	0
-171	-170	-321	0
-171	-319	-321	0
-171	-172	-164	0
-171	-170	-166	0
-171	-164	-166	0
-171	-172	-161	0
-171	-170	-163	0
-171	-161	-163	0
-156	155	157	0
-156	-155	-157	0
-164	-486	-489	0
-490	-491	488	0
-490	-489	486	0
-490	486	488	0
-487	-488	491	0
-487	-486	489	0
-487	489	491	0
-165	164	166	0
-165	-164	-166	0
-166	-488	-491	0
-350	-351	330	0
-350	-349	328	0
-350	328	330	0
-350	-351	339	0
-350	-349	337	0
-350	337	339	0
-329	-330	351	0
-329	-328	349	0
-329	349	351	0
-329	-330	339	0
-329	-328	337	0
-329	337	339	0
-338	-339	351	0
-338	-337	349	0
-338	349	351	0
-338	-339	330	0
-338	-337	328	0
-338	328	330	0
-162	161	163	0
-162	-161	-163	0
-361	-371	-328	0
377	371	328	0
377	361	328	0
-362	-363	373	0
-362	-361	371	0
-362	371	373	0
-372	-373	363	0
-372	-371	361	0
-372	361	363	0
-362	-363	-377	0
-362	-361	-379	0
-362	-377	-379	0
-372	-373	-377	0
-372	-371	-379	0
-372	-377	-379	0
-329	328	330	0
-329	-328	-330	0
-363	-373	-330	0
379	373	330	0
379	363	330	0
-365	-402	-361	0
368	402	361	0
368	365	361	0
-366	-367	404	0
-366	-365	402	0
-366	402	404	0
-362	361	363	0
-362	-361	-363	0
-365	-404	-363	0
368	404	363	0
368	365	363	0
-646	-380	-371	0
-387	-383	-371	0
383	380	371	0
387	380	371	0
383	646	371	0
387	646	371	0
-388	-389	385	0
-388	-387	383	0
-388	383	385	0
-388	-646	-380	0
-384	-646	-380	0
-372	371	373	0
-372	-371	-373	0
-646	-380	-373	0
-387	-385	-373	0
385	380	373	0
387	380	373	0
385	646	373	0
387	646	373	0
-772	-779	-179	0
-777	-778	-769	0
-777	-776	-771	0
-777	-769	-771	0
-773	-774	-769	0
-773	-772	-771	0
-773	-769	-771	0
-780	-781	-769	0
-780	-779	-771	0
-780	-769	-771	0
-777	-772	-779	0
-770	-772	-779	0
-180	179	181	0
-180	-179	-181	0
-772	-779	-181	0
-770	769	771	0
-770	-769	-771	0
-752	-763	-749	0
-759	-756	-749	0
756	763	749	0
759	763	749	0
756	752	749	0
759	752	749	0
-757	-758	761	0
-757	-756	759	0
-757	759	761	0
-764	-765	754	0
-764	-763	752	0
-764	752	754	0
-750	749	751	0
-750	-749	-751	0
-754	-763	-751	0
-761	-756	-751	0
756	763	751	0
761	763	751	0
756	754	751	0
761	754	751	0
-865	844	837	0
-177	555	558	571	0
232	421	414	418	0
560	563	561	565	0
-561	-664	-653	-665	0
390	394	659	573	0
392	806	793	797	0
391	674	755	775	0
187	195	386	197	0
496	548	516	501	0
104	447	469	449	0
103	580	616	582	0
102	704	722	706	0
77	590	642	592	0
-212	474	477	530	0
-93	-68	-96	-81	0
-95	-70	-98	-83	0
-91	-87	-92	-84	0
-91	-87	-90	-86	0
-91	-87	-84	-86	0
441	444	434	90	0
441	444	275	90	0
-442	441	-275	-434	0
-442	443	-277	-436	0
-445	444	-275	-434	0
-445	446	-277	-436	0
441	444	436	92	0
441	444	277	92	0
87	705	732	707	0
96	205	189	208	0
98	207	191	210	0
668	675	656	208	0
668	675	658	210	0
-698	-697	684	566	0
-698	-699	686	568	0
697	807	811	812	0
-243	-239	-244	-229	0
-243	-239	-242	-231	0
-243	-239	-229	-231	0
536	549	520	242	0
536	549	545	242	0
-537	536	-545	-520	0
-537	538	-547	-522	0
-550	549	-545	-520	0
-550	551	-547	-522	0
536	549	522	244	0
536	549	547	244	0
239	422	426	427	0
-63	-74	-64	-71	0
-63	-74	-62	-73	0
-63	-74	-71	-73	0
-256	-255	252	249	0
-256	-257	254	251	0
255	579	600	581	0
74	591	626	593	0
-108	132	135	153	0
678	694	691	158	0
678	790	691	158	0
678	694	798	158	0
678	790	798	158	0
-679	-790	-680	-694	0
-679	-790	-678	-696	0
-679	-790	-694	-696	0
-799	-790	-800	-694	0
-799	-790	-798	-696	0
-799	-790	-694	-696	0
-692	-790	-693	-694	0
-692	-790	-691	-696	0
-692	-790	-694	-696	0
680	696	691	160	0
680	790	691	160	0
680	696	798	160	0
680	790	798	160	0
-795	-808	-796	-786	0
-795	-808	-794	-788	0
-795	-808	-786	-788	0
-168	320	323	341	0
620	630	623	167	0
620	630	627	167	0
-621	-627	-622	-623	0
-621	-627	-620	-625	0
-621	-627	-623	-625	0
-631	-627	-632	-623	0
-631	-627	-630	-625	0
-631	-627	-623	-625	0
622	630	625	169	0
622	630	627	169	0
-745	-643	-746	-639	0
-745	-643	-744	-641	0
-745	-643	-639	-641	0
-637	-643	-638	-639	0
-637	-643	-636	-641	0
-637	-643	-639	-641	0
-605	-601	-606	-597	0
-605	-601	-604	-599	0
-605	-601	-597	-599	0
-740	-617	-741	-613	0
-740	-617	-739	-615	0
-740	-617	-613	-615	0
-611	-617	-612	-613	0
-611	-617	-610	-615	0
-611	-617	-613	-615	0
709	719	712	453	0
709	723	712	453	0
709	719	716	453	0
709	723	716	453	0
-710	-723	-711	-719	0
-710	-723	-709	-721	0
-710	-723	-719	-721	0
-717	-723	-718	-719	0
-717	-723	-716	-721	0
-717	-723	-719	-721	0
-713	-723	-714	-719	0
-713	-723	-712	-721	0
-713	-723	-719	-721	0
711	721	712	455	0
711	723	712	455	0
711	721	716	455	0
711	723	716	455	0
-737	-733	-738	-729	0
-737	-733	-736	-731	0
-737	-733	-729	-731	0
503	513	506	304	0
503	517	506	304	0
503	513	510	304	0
503	517	510	304	0
-504	-517	-505	-513	0
-504	-517	-503	-515	0
-504	-517	-513	-515	0
-511	-517	-512	-513	0
-511	-517	-510	-515	0
-511	-517	-513	-515	0
-507	-517	-508	-513	0
-507	-517	-506	-515	0
-507	-517	-513	-515	0
505	515	506	306	0
505	517	506	306	0
505	515	510	306	0
505	517	510	306	0
-534	539	-535	531	0
-534	539	-533	529	0
-534	539	529	531	0
220	226	223	217	0
220	411	223	217	0
220	226	428	217	0
220	411	428	217	0
-221	-411	-222	-226	0
-221	-411	-220	-228	0
-221	-411	-226	-228	0
-429	-411	-430	-226	0
-429	-411	-428	-228	0
-429	-411	-226	-228	0
-224	-411	-225	-226	0
-224	-411	-223	-228	0
-224	-411	-226	-228	0
222	228	223	219	0
222	411	223	219	0
222	228	428	219	0
222	411	428	219	0
-416	-423	-417	-405	0
-416	-423	-415	-407	0
-416	-423	-405	-407	0
-456	-483	-476	-289	0
-456	-483	-480	-289	0
-457	480	-458	478	0
-457	480	-456	476	0
-457	480	476	478	0
-484	480	-485	478	0
-484	480	-483	476	0
-484	480	476	478	0
-458	-483	-478	-291	0
-458	-483	-480	-291	0
-464	-470	-465	-466	0
-464	-470	-463	-468	0
-464	-470	-466	-468	0
-460	-470	-461	-466	0
-460	-470	-459	-468	0
-460	-470	-466	-468	0
-113	-307	-355	-313	0
-115	-309	-357	-315	0
-161	-337	-328	-349	0
-163	-339	-330	-351	0
-378	377	-361	-371	0
-378	379	-363	-373	0
-369	-365	-370	-402	0
-369	-365	-368	-404	0
-369	-365	-402	-404	0
-647	-387	-648	-383	0
-647	-387	-646	-385	0
-647	-387	-383	-385	0
-381	-387	-382	-383	0
-381	-387	-380	-385	0
-381	-387	-383	-385	0
776	769	779	179	0
776	769	772	179	0
776	771	779	181	0
776	771	772	181	0
-760	-763	-761	-752	0
-760	-763	-759	-754	0
-760	-763	-752	-754	0
-757	-763	-758	-752	0
-757	-763	-756	-754	0
-757	-763	-752	-754	0
-753	-756	-754	-759	0
-753	-756	-752	-761	0
-753	-756	-759	-761	0
-764	-756	-765	-759	0
-764	-756	-763	-761	0
-764	-756	-759	-761	0
281	261	270	106	409	0
-78	-99	-552	-390	-396	0
-80	-101	-552	-390	-396	0
-57	-583	-560	-58	-575	0
99	106	270	261	281	0
-847	624	730	753	787	0
189	192	196	364	198	0
191	194	196	364	198	0
-43	-298	-146	-128	-134	0
-45	-300	-148	-130	-136	0
-117	126	129	296	344	0
-120	299	302	308	490	0
-49	-143	-149	-137	-152	0
-51	-145	-151	-139	-154	0
-137	-343	-374	-346	-352	0
-139	-345	-376	-348	-354	0
-110	-295	-301	-310	-286	0
-112	-297	-303	-312	-288	0
-46	-131	-140	-113	-125	0
-48	-133	-142	-115	-127	0
155	170	161	164	319	0
157	172	163	166	321	0
53	47	50	44	41	836	0
-79	200	203	215	227	840	0
-840	234	264	268	273	841	0
-841	284	384	439	467	842	0
-842	514	526	614	640	843	0
-843	662	689	695	720	760	0
-94	403	406	493	598	847	0
-293	311	314	326	347	487	0
-864	861	858	855	852	865	0
